(set-info :category "industrial")
(set-info :status sat)
(declare-fun x01 () (_ BitVec 8))
(declare-fun x03 () (_ BitVec 8))
(declare-fun x04 () (_ BitVec 8))
(declare-fun x06 () (_ BitVec 8))
(declare-fun x10 () (_ BitVec 8))
(declare-fun x12 () (_ BitVec 8))
(declare-fun x13 () (_ BitVec 8))
(declare-fun x14 () (_ BitVec 8))
(declare-fun x15 () (_ BitVec 8))
(declare-fun x16 () (_ BitVec 8))
(declare-fun x17 () (_ BitVec 8))
(declare-fun x21 () (_ BitVec 8))
(declare-fun x23 () (_ BitVec 8))
(declare-fun x24 () (_ BitVec 8))
(declare-fun x28 () (_ BitVec 8))
(declare-fun x30 () (_ BitVec 8))
(declare-fun x34 () (_ BitVec 8))
(declare-fun x36 () (_ BitVec 8))
(declare-fun x37 () (_ BitVec 8))
(declare-fun x38 () (_ BitVec 8))
(declare-fun x41 () (_ BitVec 8))
(declare-fun x42 () (_ BitVec 8))
(declare-fun x43 () (_ BitVec 8))
(declare-fun x46 () (_ BitVec 8))
(declare-fun x48 () (_ BitVec 8))
(declare-fun x50 () (_ BitVec 8))
(declare-fun x51 () (_ BitVec 8))
(declare-fun x52 () (_ BitVec 8))
(declare-fun x55 () (_ BitVec 8))
(declare-fun x56 () (_ BitVec 8))
(declare-fun x57 () (_ BitVec 8))
(declare-fun x61 () (_ BitVec 8))
(declare-fun x62 () (_ BitVec 8))
(declare-fun x64 () (_ BitVec 8))
(declare-fun x65 () (_ BitVec 8))
(declare-fun x66 () (_ BitVec 8))
(declare-fun x67 () (_ BitVec 8))
(declare-fun x70 () (_ BitVec 8))
(declare-fun x72 () (_ BitVec 8))
(declare-fun x73 () (_ BitVec 8))
(declare-fun x74 () (_ BitVec 8))
(declare-fun x75 () (_ BitVec 8))
(declare-fun x77 () (_ BitVec 8))
(declare-fun x78 () (_ BitVec 8))
(declare-fun x81 () (_ BitVec 8))
(declare-fun x86 () (_ BitVec 8))
(declare-fun x88 () (_ BitVec 8))
(assert (bvult x01 (_ bv9 8)))
(assert (bvult x03 (_ bv9 8)))
(assert (bvult x04 (_ bv9 8)))
(assert (bvult x06 (_ bv9 8)))
(assert (bvult x10 (_ bv9 8)))
(assert (bvult x12 (_ bv9 8)))
(assert (bvult x13 (_ bv9 8)))
(assert (bvult x14 (_ bv9 8)))
(assert (bvult x15 (_ bv9 8)))
(assert (bvult x16 (_ bv9 8)))
(assert (bvult x17 (_ bv9 8)))
(assert (bvult x21 (_ bv9 8)))
(assert (bvult x23 (_ bv9 8)))
(assert (bvult x24 (_ bv9 8)))
(assert (bvult x28 (_ bv9 8)))
(assert (bvult x30 (_ bv9 8)))
(assert (bvult x34 (_ bv9 8)))
(assert (bvult x36 (_ bv9 8)))
(assert (bvult x37 (_ bv9 8)))
(assert (bvult x38 (_ bv9 8)))
(assert (bvult x41 (_ bv9 8)))
(assert (bvult x42 (_ bv9 8)))
(assert (bvult x43 (_ bv9 8)))
(assert (bvult x46 (_ bv9 8)))
(assert (bvult x48 (_ bv9 8)))
(assert (bvult x50 (_ bv9 8)))
(assert (bvult x51 (_ bv9 8)))
(assert (bvult x52 (_ bv9 8)))
(assert (bvult x55 (_ bv9 8)))
(assert (bvult x56 (_ bv9 8)))
(assert (bvult x57 (_ bv9 8)))
(assert (bvult x61 (_ bv9 8)))
(assert (bvult x62 (_ bv9 8)))
(assert (bvult x64 (_ bv9 8)))
(assert (bvult x65 (_ bv9 8)))
(assert (bvult x66 (_ bv9 8)))
(assert (bvult x67 (_ bv9 8)))
(assert (bvult x70 (_ bv9 8)))
(assert (bvult x72 (_ bv9 8)))
(assert (bvult x73 (_ bv9 8)))
(assert (bvult x74 (_ bv9 8)))
(assert (bvult x75 (_ bv9 8)))
(assert (bvult x77 (_ bv9 8)))
(assert (bvult x78 (_ bv9 8)))
(assert (bvult x81 (_ bv9 8)))
(assert (bvult x86 (_ bv9 8)))
(assert (bvult x88 (_ bv9 8)))
(assert (not (= (_ bv7 8) x01)))
(assert (not (= (_ bv7 8) (_ bv2 8))))
(assert (not (= (_ bv7 8) x03)))
(assert (not (= (_ bv7 8) x04)))
(assert (not (= (_ bv7 8) (_ bv5 8))))
(assert (not (= (_ bv7 8) x06)))
(assert (not (= (_ bv7 8) (_ bv8 8))))
(assert (not (= (_ bv7 8) (_ bv9 8))))
(assert (not (= x01 (_ bv2 8))))
(assert (not (= x01 x03)))
(assert (not (= x01 x04)))
(assert (not (= x01 (_ bv5 8))))
(assert (not (= x01 x06)))
(assert (not (= x01 (_ bv8 8))))
(assert (not (= x01 (_ bv9 8))))
(assert (not (= (_ bv2 8) x03)))
(assert (not (= (_ bv2 8) x04)))
(assert (not (= (_ bv2 8) (_ bv5 8))))
(assert (not (= (_ bv2 8) x06)))
(assert (not (= (_ bv2 8) (_ bv8 8))))
(assert (not (= (_ bv2 8) (_ bv9 8))))
(assert (not (= x03 x04)))
(assert (not (= x03 (_ bv5 8))))
(assert (not (= x03 x06)))
(assert (not (= x03 (_ bv8 8))))
(assert (not (= x03 (_ bv9 8))))
(assert (not (= x04 (_ bv5 8))))
(assert (not (= x04 x06)))
(assert (not (= x04 (_ bv8 8))))
(assert (not (= x04 (_ bv9 8))))
(assert (not (= (_ bv5 8) x06)))
(assert (not (= (_ bv5 8) (_ bv8 8))))
(assert (not (= (_ bv5 8) (_ bv9 8))))
(assert (not (= x06 (_ bv8 8))))
(assert (not (= x06 (_ bv9 8))))
(assert (not (= (_ bv8 8) (_ bv9 8))))
(assert (not (= x10 (_ bv1 8))))
(assert (not (= x10 x12)))
(assert (not (= x10 x13)))
(assert (not (= x10 x14)))
(assert (not (= x10 x15)))
(assert (not (= x10 x16)))
(assert (not (= x10 x17)))
(assert (not (= x10 (_ bv3 8))))
(assert (not (= (_ bv1 8) x12)))
(assert (not (= (_ bv1 8) x13)))
(assert (not (= (_ bv1 8) x14)))
(assert (not (= (_ bv1 8) x15)))
(assert (not (= (_ bv1 8) x16)))
(assert (not (= (_ bv1 8) x17)))
(assert (not (= (_ bv1 8) (_ bv3 8))))
(assert (not (= x12 x13)))
(assert (not (= x12 x14)))
(assert (not (= x12 x15)))
(assert (not (= x12 x16)))
(assert (not (= x12 x17)))
(assert (not (= x12 (_ bv3 8))))
(assert (not (= x13 x14)))
(assert (not (= x13 x15)))
(assert (not (= x13 x16)))
(assert (not (= x13 x17)))
(assert (not (= x13 (_ bv3 8))))
(assert (not (= x14 x15)))
(assert (not (= x14 x16)))
(assert (not (= x14 x17)))
(assert (not (= x14 (_ bv3 8))))
(assert (not (= x15 x16)))
(assert (not (= x15 x17)))
(assert (not (= x15 (_ bv3 8))))
(assert (not (= x16 x17)))
(assert (not (= x16 (_ bv3 8))))
(assert (not (= x17 (_ bv3 8))))
(assert (not (= (_ bv5 8) x21)))
(assert (not (= (_ bv5 8) (_ bv8 8))))
(assert (not (= (_ bv5 8) x23)))
(assert (not (= (_ bv5 8) x24)))
(assert (not (= (_ bv5 8) (_ bv2 8))))
(assert (not (= (_ bv5 8) (_ bv4 8))))
(assert (not (= (_ bv5 8) (_ bv6 8))))
(assert (not (= (_ bv5 8) x28)))
(assert (not (= x21 (_ bv8 8))))
(assert (not (= x21 x23)))
(assert (not (= x21 x24)))
(assert (not (= x21 (_ bv2 8))))
(assert (not (= x21 (_ bv4 8))))
(assert (not (= x21 (_ bv6 8))))
(assert (not (= x21 x28)))
(assert (not (= (_ bv8 8) x23)))
(assert (not (= (_ bv8 8) x24)))
(assert (not (= (_ bv8 8) (_ bv2 8))))
(assert (not (= (_ bv8 8) (_ bv4 8))))
(assert (not (= (_ bv8 8) (_ bv6 8))))
(assert (not (= (_ bv8 8) x28)))
(assert (not (= x23 x24)))
(assert (not (= x23 (_ bv2 8))))
(assert (not (= x23 (_ bv4 8))))
(assert (not (= x23 (_ bv6 8))))
(assert (not (= x23 x28)))
(assert (not (= x24 (_ bv2 8))))
(assert (not (= x24 (_ bv4 8))))
(assert (not (= x24 (_ bv6 8))))
(assert (not (= x24 x28)))
(assert (not (= (_ bv2 8) (_ bv4 8))))
(assert (not (= (_ bv2 8) (_ bv6 8))))
(assert (not (= (_ bv2 8) x28)))
(assert (not (= (_ bv4 8) (_ bv6 8))))
(assert (not (= (_ bv4 8) x28)))
(assert (not (= (_ bv6 8) x28)))
(assert (not (= x30 (_ bv6 8))))
(assert (not (= x30 (_ bv4 8))))
(assert (not (= x30 (_ bv7 8))))
(assert (not (= x30 x34)))
(assert (not (= x30 (_ bv9 8))))
(assert (not (= x30 x36)))
(assert (not (= x30 x37)))
(assert (not (= x30 x38)))
(assert (not (= (_ bv6 8) (_ bv4 8))))
(assert (not (= (_ bv6 8) (_ bv7 8))))
(assert (not (= (_ bv6 8) x34)))
(assert (not (= (_ bv6 8) (_ bv9 8))))
(assert (not (= (_ bv6 8) x36)))
(assert (not (= (_ bv6 8) x37)))
(assert (not (= (_ bv6 8) x38)))
(assert (not (= (_ bv4 8) (_ bv7 8))))
(assert (not (= (_ bv4 8) x34)))
(assert (not (= (_ bv4 8) (_ bv9 8))))
(assert (not (= (_ bv4 8) x36)))
(assert (not (= (_ bv4 8) x37)))
(assert (not (= (_ bv4 8) x38)))
(assert (not (= (_ bv7 8) x34)))
(assert (not (= (_ bv7 8) (_ bv9 8))))
(assert (not (= (_ bv7 8) x36)))
(assert (not (= (_ bv7 8) x37)))
(assert (not (= (_ bv7 8) x38)))
(assert (not (= x34 (_ bv9 8))))
(assert (not (= x34 x36)))
(assert (not (= x34 x37)))
(assert (not (= x34 x38)))
(assert (not (= (_ bv9 8) x36)))
(assert (not (= (_ bv9 8) x37)))
(assert (not (= (_ bv9 8) x38)))
(assert (not (= x36 x37)))
(assert (not (= x36 x38)))
(assert (not (= x37 x38)))
(assert (not (= (_ bv1 8) x41)))
(assert (not (= (_ bv1 8) x42)))
(assert (not (= (_ bv1 8) x43)))
(assert (not (= (_ bv1 8) (_ bv8 8))))
(assert (not (= (_ bv1 8) (_ bv6 8))))
(assert (not (= (_ bv1 8) x46)))
(assert (not (= (_ bv1 8) (_ bv5 8))))
(assert (not (= (_ bv1 8) x48)))
(assert (not (= x41 x42)))
(assert (not (= x41 x43)))
(assert (not (= x41 (_ bv8 8))))
(assert (not (= x41 (_ bv6 8))))
(assert (not (= x41 x46)))
(assert (not (= x41 (_ bv5 8))))
(assert (not (= x41 x48)))
(assert (not (= x42 x43)))
(assert (not (= x42 (_ bv8 8))))
(assert (not (= x42 (_ bv6 8))))
(assert (not (= x42 x46)))
(assert (not (= x42 (_ bv5 8))))
(assert (not (= x42 x48)))
(assert (not (= x43 (_ bv8 8))))
(assert (not (= x43 (_ bv6 8))))
(assert (not (= x43 x46)))
(assert (not (= x43 (_ bv5 8))))
(assert (not (= x43 x48)))
(assert (not (= (_ bv8 8) (_ bv6 8))))
(assert (not (= (_ bv8 8) x46)))
(assert (not (= (_ bv8 8) (_ bv5 8))))
(assert (not (= (_ bv8 8) x48)))
(assert (not (= (_ bv6 8) x46)))
(assert (not (= (_ bv6 8) (_ bv5 8))))
(assert (not (= (_ bv6 8) x48)))
(assert (not (= x46 (_ bv5 8))))
(assert (not (= x46 x48)))
(assert (not (= (_ bv5 8) x48)))
(assert (not (= x50 x51)))
(assert (not (= x50 x52)))
(assert (not (= x50 (_ bv3 8))))
(assert (not (= x50 (_ bv4 8))))
(assert (not (= x50 x55)))
(assert (not (= x50 x56)))
(assert (not (= x50 x57)))
(assert (not (= x50 (_ bv8 8))))
(assert (not (= x51 x52)))
(assert (not (= x51 (_ bv3 8))))
(assert (not (= x51 (_ bv4 8))))
(assert (not (= x51 x55)))
(assert (not (= x51 x56)))
(assert (not (= x51 x57)))
(assert (not (= x51 (_ bv8 8))))
(assert (not (= x52 (_ bv3 8))))
(assert (not (= x52 (_ bv4 8))))
(assert (not (= x52 x55)))
(assert (not (= x52 x56)))
(assert (not (= x52 x57)))
(assert (not (= x52 (_ bv8 8))))
(assert (not (= (_ bv3 8) (_ bv4 8))))
(assert (not (= (_ bv3 8) x55)))
(assert (not (= (_ bv3 8) x56)))
(assert (not (= (_ bv3 8) x57)))
(assert (not (= (_ bv3 8) (_ bv8 8))))
(assert (not (= (_ bv4 8) x55)))
(assert (not (= (_ bv4 8) x56)))
(assert (not (= (_ bv4 8) x57)))
(assert (not (= (_ bv4 8) (_ bv8 8))))
(assert (not (= x55 x56)))
(assert (not (= x55 x57)))
(assert (not (= x55 (_ bv8 8))))
(assert (not (= x56 x57)))
(assert (not (= x56 (_ bv8 8))))
(assert (not (= x57 (_ bv8 8))))
(assert (not (= (_ bv9 8) x61)))
(assert (not (= (_ bv9 8) x62)))
(assert (not (= (_ bv9 8) (_ bv1 8))))
(assert (not (= (_ bv9 8) x64)))
(assert (not (= (_ bv9 8) x65)))
(assert (not (= (_ bv9 8) x66)))
(assert (not (= (_ bv9 8) x67)))
(assert (not (= (_ bv9 8) (_ bv5 8))))
(assert (not (= x61 x62)))
(assert (not (= x61 (_ bv1 8))))
(assert (not (= x61 x64)))
(assert (not (= x61 x65)))
(assert (not (= x61 x66)))
(assert (not (= x61 x67)))
(assert (not (= x61 (_ bv5 8))))
(assert (not (= x62 (_ bv1 8))))
(assert (not (= x62 x64)))
(assert (not (= x62 x65)))
(assert (not (= x62 x66)))
(assert (not (= x62 x67)))
(assert (not (= x62 (_ bv5 8))))
(assert (not (= (_ bv1 8) x64)))
(assert (not (= (_ bv1 8) x65)))
(assert (not (= (_ bv1 8) x66)))
(assert (not (= (_ bv1 8) x67)))
(assert (not (= (_ bv1 8) (_ bv5 8))))
(assert (not (= x64 x65)))
(assert (not (= x64 x66)))
(assert (not (= x64 x67)))
(assert (not (= x64 (_ bv5 8))))
(assert (not (= x65 x66)))
(assert (not (= x65 x67)))
(assert (not (= x65 (_ bv5 8))))
(assert (not (= x66 x67)))
(assert (not (= x66 (_ bv5 8))))
(assert (not (= x67 (_ bv5 8))))
(assert (not (= x70 (_ bv2 8))))
(assert (not (= x70 x72)))
(assert (not (= x70 x73)))
(assert (not (= x70 x74)))
(assert (not (= x70 x75)))
(assert (not (= x70 (_ bv7 8))))
(assert (not (= x70 x77)))
(assert (not (= x70 x78)))
(assert (not (= (_ bv2 8) x72)))
(assert (not (= (_ bv2 8) x73)))
(assert (not (= (_ bv2 8) x74)))
(assert (not (= (_ bv2 8) x75)))
(assert (not (= (_ bv2 8) (_ bv7 8))))
(assert (not (= (_ bv2 8) x77)))
(assert (not (= (_ bv2 8) x78)))
(assert (not (= x72 x73)))
(assert (not (= x72 x74)))
(assert (not (= x72 x75)))
(assert (not (= x72 (_ bv7 8))))
(assert (not (= x72 x77)))
(assert (not (= x72 x78)))
(assert (not (= x73 x74)))
(assert (not (= x73 x75)))
(assert (not (= x73 (_ bv7 8))))
(assert (not (= x73 x77)))
(assert (not (= x73 x78)))
(assert (not (= x74 x75)))
(assert (not (= x74 (_ bv7 8))))
(assert (not (= x74 x77)))
(assert (not (= x74 x78)))
(assert (not (= x75 (_ bv7 8))))
(assert (not (= x75 x77)))
(assert (not (= x75 x78)))
(assert (not (= (_ bv7 8) x77)))
(assert (not (= (_ bv7 8) x78)))
(assert (not (= x77 x78)))
(assert (not (= (_ bv3 8) x81)))
(assert (not (= (_ bv3 8) (_ bv6 8))))
(assert (not (= (_ bv3 8) (_ bv4 8))))
(assert (not (= (_ bv3 8) (_ bv2 8))))
(assert (not (= (_ bv3 8) (_ bv7 8))))
(assert (not (= (_ bv3 8) x86)))
(assert (not (= (_ bv3 8) (_ bv9 8))))
(assert (not (= (_ bv3 8) x88)))
(assert (not (= x81 (_ bv6 8))))
(assert (not (= x81 (_ bv4 8))))
(assert (not (= x81 (_ bv2 8))))
(assert (not (= x81 (_ bv7 8))))
(assert (not (= x81 x86)))
(assert (not (= x81 (_ bv9 8))))
(assert (not (= x81 x88)))
(assert (not (= (_ bv6 8) (_ bv4 8))))
(assert (not (= (_ bv6 8) (_ bv2 8))))
(assert (not (= (_ bv6 8) (_ bv7 8))))
(assert (not (= (_ bv6 8) x86)))
(assert (not (= (_ bv6 8) (_ bv9 8))))
(assert (not (= (_ bv6 8) x88)))
(assert (not (= (_ bv4 8) (_ bv2 8))))
(assert (not (= (_ bv4 8) (_ bv7 8))))
(assert (not (= (_ bv4 8) x86)))
(assert (not (= (_ bv4 8) (_ bv9 8))))
(assert (not (= (_ bv4 8) x88)))
(assert (not (= (_ bv2 8) (_ bv7 8))))
(assert (not (= (_ bv2 8) x86)))
(assert (not (= (_ bv2 8) (_ bv9 8))))
(assert (not (= (_ bv2 8) x88)))
(assert (not (= (_ bv7 8) x86)))
(assert (not (= (_ bv7 8) (_ bv9 8))))
(assert (not (= (_ bv7 8) x88)))
(assert (not (= x86 (_ bv9 8))))
(assert (not (= x86 x88)))
(assert (not (= (_ bv9 8) x88)))
(assert (not (= (_ bv7 8) x10)))
(assert (not (= (_ bv7 8) (_ bv5 8))))
(assert (not (= (_ bv7 8) x30)))
(assert (not (= (_ bv7 8) (_ bv1 8))))
(assert (not (= (_ bv7 8) x50)))
(assert (not (= (_ bv7 8) (_ bv9 8))))
(assert (not (= (_ bv7 8) x70)))
(assert (not (= (_ bv7 8) (_ bv3 8))))
(assert (not (= x10 (_ bv5 8))))
(assert (not (= x10 x30)))
(assert (not (= x10 (_ bv1 8))))
(assert (not (= x10 x50)))
(assert (not (= x10 (_ bv9 8))))
(assert (not (= x10 x70)))
(assert (not (= x10 (_ bv3 8))))
(assert (not (= (_ bv5 8) x30)))
(assert (not (= (_ bv5 8) (_ bv1 8))))
(assert (not (= (_ bv5 8) x50)))
(assert (not (= (_ bv5 8) (_ bv9 8))))
(assert (not (= (_ bv5 8) x70)))
(assert (not (= (_ bv5 8) (_ bv3 8))))
(assert (not (= x30 (_ bv1 8))))
(assert (not (= x30 x50)))
(assert (not (= x30 (_ bv9 8))))
(assert (not (= x30 x70)))
(assert (not (= x30 (_ bv3 8))))
(assert (not (= (_ bv1 8) x50)))
(assert (not (= (_ bv1 8) (_ bv9 8))))
(assert (not (= (_ bv1 8) x70)))
(assert (not (= (_ bv1 8) (_ bv3 8))))
(assert (not (= x50 (_ bv9 8))))
(assert (not (= x50 x70)))
(assert (not (= x50 (_ bv3 8))))
(assert (not (= (_ bv9 8) x70)))
(assert (not (= (_ bv9 8) (_ bv3 8))))
(assert (not (= x70 (_ bv3 8))))
(assert (not (= x01 (_ bv1 8))))
(assert (not (= x01 x21)))
(assert (not (= x01 (_ bv6 8))))
(assert (not (= x01 x41)))
(assert (not (= x01 x51)))
(assert (not (= x01 x61)))
(assert (not (= x01 (_ bv2 8))))
(assert (not (= x01 x81)))
(assert (not (= (_ bv1 8) x21)))
(assert (not (= (_ bv1 8) (_ bv6 8))))
(assert (not (= (_ bv1 8) x41)))
(assert (not (= (_ bv1 8) x51)))
(assert (not (= (_ bv1 8) x61)))
(assert (not (= (_ bv1 8) (_ bv2 8))))
(assert (not (= (_ bv1 8) x81)))
(assert (not (= x21 (_ bv6 8))))
(assert (not (= x21 x41)))
(assert (not (= x21 x51)))
(assert (not (= x21 x61)))
(assert (not (= x21 (_ bv2 8))))
(assert (not (= x21 x81)))
(assert (not (= (_ bv6 8) x41)))
(assert (not (= (_ bv6 8) x51)))
(assert (not (= (_ bv6 8) x61)))
(assert (not (= (_ bv6 8) (_ bv2 8))))
(assert (not (= (_ bv6 8) x81)))
(assert (not (= x41 x51)))
(assert (not (= x41 x61)))
(assert (not (= x41 (_ bv2 8))))
(assert (not (= x41 x81)))
(assert (not (= x51 x61)))
(assert (not (= x51 (_ bv2 8))))
(assert (not (= x51 x81)))
(assert (not (= x61 (_ bv2 8))))
(assert (not (= x61 x81)))
(assert (not (= (_ bv2 8) x81)))
(assert (not (= (_ bv2 8) x12)))
(assert (not (= (_ bv2 8) (_ bv8 8))))
(assert (not (= (_ bv2 8) (_ bv4 8))))
(assert (not (= (_ bv2 8) x42)))
(assert (not (= (_ bv2 8) x52)))
(assert (not (= (_ bv2 8) x62)))
(assert (not (= (_ bv2 8) x72)))
(assert (not (= (_ bv2 8) (_ bv6 8))))
(assert (not (= x12 (_ bv8 8))))
(assert (not (= x12 (_ bv4 8))))
(assert (not (= x12 x42)))
(assert (not (= x12 x52)))
(assert (not (= x12 x62)))
(assert (not (= x12 x72)))
(assert (not (= x12 (_ bv6 8))))
(assert (not (= (_ bv8 8) (_ bv4 8))))
(assert (not (= (_ bv8 8) x42)))
(assert (not (= (_ bv8 8) x52)))
(assert (not (= (_ bv8 8) x62)))
(assert (not (= (_ bv8 8) x72)))
(assert (not (= (_ bv8 8) (_ bv6 8))))
(assert (not (= (_ bv4 8) x42)))
(assert (not (= (_ bv4 8) x52)))
(assert (not (= (_ bv4 8) x62)))
(assert (not (= (_ bv4 8) x72)))
(assert (not (= (_ bv4 8) (_ bv6 8))))
(assert (not (= x42 x52)))
(assert (not (= x42 x62)))
(assert (not (= x42 x72)))
(assert (not (= x42 (_ bv6 8))))
(assert (not (= x52 x62)))
(assert (not (= x52 x72)))
(assert (not (= x52 (_ bv6 8))))
(assert (not (= x62 x72)))
(assert (not (= x62 (_ bv6 8))))
(assert (not (= x72 (_ bv6 8))))
(assert (not (= x03 x13)))
(assert (not (= x03 x23)))
(assert (not (= x03 (_ bv7 8))))
(assert (not (= x03 x43)))
(assert (not (= x03 (_ bv3 8))))
(assert (not (= x03 (_ bv1 8))))
(assert (not (= x03 x73)))
(assert (not (= x03 (_ bv4 8))))
(assert (not (= x13 x23)))
(assert (not (= x13 (_ bv7 8))))
(assert (not (= x13 x43)))
(assert (not (= x13 (_ bv3 8))))
(assert (not (= x13 (_ bv1 8))))
(assert (not (= x13 x73)))
(assert (not (= x13 (_ bv4 8))))
(assert (not (= x23 (_ bv7 8))))
(assert (not (= x23 x43)))
(assert (not (= x23 (_ bv3 8))))
(assert (not (= x23 (_ bv1 8))))
(assert (not (= x23 x73)))
(assert (not (= x23 (_ bv4 8))))
(assert (not (= (_ bv7 8) x43)))
(assert (not (= (_ bv7 8) (_ bv3 8))))
(assert (not (= (_ bv7 8) (_ bv1 8))))
(assert (not (= (_ bv7 8) x73)))
(assert (not (= (_ bv7 8) (_ bv4 8))))
(assert (not (= x43 (_ bv3 8))))
(assert (not (= x43 (_ bv1 8))))
(assert (not (= x43 x73)))
(assert (not (= x43 (_ bv4 8))))
(assert (not (= (_ bv3 8) (_ bv1 8))))
(assert (not (= (_ bv3 8) x73)))
(assert (not (= (_ bv3 8) (_ bv4 8))))
(assert (not (= (_ bv1 8) x73)))
(assert (not (= (_ bv1 8) (_ bv4 8))))
(assert (not (= x73 (_ bv4 8))))
(assert (not (= x04 x14)))
(assert (not (= x04 x24)))
(assert (not (= x04 x34)))
(assert (not (= x04 (_ bv8 8))))
(assert (not (= x04 (_ bv4 8))))
(assert (not (= x04 x64)))
(assert (not (= x04 x74)))
(assert (not (= x04 (_ bv2 8))))
(assert (not (= x14 x24)))
(assert (not (= x14 x34)))
(assert (not (= x14 (_ bv8 8))))
(assert (not (= x14 (_ bv4 8))))
(assert (not (= x14 x64)))
(assert (not (= x14 x74)))
(assert (not (= x14 (_ bv2 8))))
(assert (not (= x24 x34)))
(assert (not (= x24 (_ bv8 8))))
(assert (not (= x24 (_ bv4 8))))
(assert (not (= x24 x64)))
(assert (not (= x24 x74)))
(assert (not (= x24 (_ bv2 8))))
(assert (not (= x34 (_ bv8 8))))
(assert (not (= x34 (_ bv4 8))))
(assert (not (= x34 x64)))
(assert (not (= x34 x74)))
(assert (not (= x34 (_ bv2 8))))
(assert (not (= (_ bv8 8) (_ bv4 8))))
(assert (not (= (_ bv8 8) x64)))
(assert (not (= (_ bv8 8) x74)))
(assert (not (= (_ bv8 8) (_ bv2 8))))
(assert (not (= (_ bv4 8) x64)))
(assert (not (= (_ bv4 8) x74)))
(assert (not (= (_ bv4 8) (_ bv2 8))))
(assert (not (= x64 x74)))
(assert (not (= x64 (_ bv2 8))))
(assert (not (= x74 (_ bv2 8))))
(assert (not (= (_ bv5 8) x15)))
(assert (not (= (_ bv5 8) (_ bv2 8))))
(assert (not (= (_ bv5 8) (_ bv9 8))))
(assert (not (= (_ bv5 8) (_ bv6 8))))
(assert (not (= (_ bv5 8) x55)))
(assert (not (= (_ bv5 8) x65)))
(assert (not (= (_ bv5 8) x75)))
(assert (not (= (_ bv5 8) (_ bv7 8))))
(assert (not (= x15 (_ bv2 8))))
(assert (not (= x15 (_ bv9 8))))
(assert (not (= x15 (_ bv6 8))))
(assert (not (= x15 x55)))
(assert (not (= x15 x65)))
(assert (not (= x15 x75)))
(assert (not (= x15 (_ bv7 8))))
(assert (not (= (_ bv2 8) (_ bv9 8))))
(assert (not (= (_ bv2 8) (_ bv6 8))))
(assert (not (= (_ bv2 8) x55)))
(assert (not (= (_ bv2 8) x65)))
(assert (not (= (_ bv2 8) x75)))
(assert (not (= (_ bv2 8) (_ bv7 8))))
(assert (not (= (_ bv9 8) (_ bv6 8))))
(assert (not (= (_ bv9 8) x55)))
(assert (not (= (_ bv9 8) x65)))
(assert (not (= (_ bv9 8) x75)))
(assert (not (= (_ bv9 8) (_ bv7 8))))
(assert (not (= (_ bv6 8) x55)))
(assert (not (= (_ bv6 8) x65)))
(assert (not (= (_ bv6 8) x75)))
(assert (not (= (_ bv6 8) (_ bv7 8))))
(assert (not (= x55 x65)))
(assert (not (= x55 x75)))
(assert (not (= x55 (_ bv7 8))))
(assert (not (= x65 x75)))
(assert (not (= x65 (_ bv7 8))))
(assert (not (= x75 (_ bv7 8))))
(assert (not (= x06 x16)))
(assert (not (= x06 (_ bv4 8))))
(assert (not (= x06 x36)))
(assert (not (= x06 x46)))
(assert (not (= x06 x56)))
(assert (not (= x06 x66)))
(assert (not (= x06 (_ bv7 8))))
(assert (not (= x06 x86)))
(assert (not (= x16 (_ bv4 8))))
(assert (not (= x16 x36)))
(assert (not (= x16 x46)))
(assert (not (= x16 x56)))
(assert (not (= x16 x66)))
(assert (not (= x16 (_ bv7 8))))
(assert (not (= x16 x86)))
(assert (not (= (_ bv4 8) x36)))
(assert (not (= (_ bv4 8) x46)))
(assert (not (= (_ bv4 8) x56)))
(assert (not (= (_ bv4 8) x66)))
(assert (not (= (_ bv4 8) (_ bv7 8))))
(assert (not (= (_ bv4 8) x86)))
(assert (not (= x36 x46)))
(assert (not (= x36 x56)))
(assert (not (= x36 x66)))
(assert (not (= x36 (_ bv7 8))))
(assert (not (= x36 x86)))
(assert (not (= x46 x56)))
(assert (not (= x46 x66)))
(assert (not (= x46 (_ bv7 8))))
(assert (not (= x46 x86)))
(assert (not (= x56 x66)))
(assert (not (= x56 (_ bv7 8))))
(assert (not (= x56 x86)))
(assert (not (= x66 (_ bv7 8))))
(assert (not (= x66 x86)))
(assert (not (= (_ bv7 8) x86)))
(assert (not (= (_ bv8 8) x17)))
(assert (not (= (_ bv8 8) (_ bv6 8))))
(assert (not (= (_ bv8 8) x37)))
(assert (not (= (_ bv8 8) (_ bv5 8))))
(assert (not (= (_ bv8 8) x57)))
(assert (not (= (_ bv8 8) x67)))
(assert (not (= (_ bv8 8) x77)))
(assert (not (= (_ bv8 8) (_ bv9 8))))
(assert (not (= x17 (_ bv6 8))))
(assert (not (= x17 x37)))
(assert (not (= x17 (_ bv5 8))))
(assert (not (= x17 x57)))
(assert (not (= x17 x67)))
(assert (not (= x17 x77)))
(assert (not (= x17 (_ bv9 8))))
(assert (not (= (_ bv6 8) x37)))
(assert (not (= (_ bv6 8) (_ bv5 8))))
(assert (not (= (_ bv6 8) x57)))
(assert (not (= (_ bv6 8) x67)))
(assert (not (= (_ bv6 8) x77)))
(assert (not (= (_ bv6 8) (_ bv9 8))))
(assert (not (= x37 (_ bv5 8))))
(assert (not (= x37 x57)))
(assert (not (= x37 x67)))
(assert (not (= x37 x77)))
(assert (not (= x37 (_ bv9 8))))
(assert (not (= (_ bv5 8) x57)))
(assert (not (= (_ bv5 8) x67)))
(assert (not (= (_ bv5 8) x77)))
(assert (not (= (_ bv5 8) (_ bv9 8))))
(assert (not (= x57 x67)))
(assert (not (= x57 x77)))
(assert (not (= x57 (_ bv9 8))))
(assert (not (= x67 x77)))
(assert (not (= x67 (_ bv9 8))))
(assert (not (= x77 (_ bv9 8))))
(assert (not (= (_ bv9 8) (_ bv3 8))))
(assert (not (= (_ bv9 8) x28)))
(assert (not (= (_ bv9 8) x38)))
(assert (not (= (_ bv9 8) x48)))
(assert (not (= (_ bv9 8) (_ bv8 8))))
(assert (not (= (_ bv9 8) (_ bv5 8))))
(assert (not (= (_ bv9 8) x78)))
(assert (not (= (_ bv9 8) x88)))
(assert (not (= (_ bv3 8) x28)))
(assert (not (= (_ bv3 8) x38)))
(assert (not (= (_ bv3 8) x48)))
(assert (not (= (_ bv3 8) (_ bv8 8))))
(assert (not (= (_ bv3 8) (_ bv5 8))))
(assert (not (= (_ bv3 8) x78)))
(assert (not (= (_ bv3 8) x88)))
(assert (not (= x28 x38)))
(assert (not (= x28 x48)))
(assert (not (= x28 (_ bv8 8))))
(assert (not (= x28 (_ bv5 8))))
(assert (not (= x28 x78)))
(assert (not (= x28 x88)))
(assert (not (= x38 x48)))
(assert (not (= x38 (_ bv8 8))))
(assert (not (= x38 (_ bv5 8))))
(assert (not (= x38 x78)))
(assert (not (= x38 x88)))
(assert (not (= x48 (_ bv8 8))))
(assert (not (= x48 (_ bv5 8))))
(assert (not (= x48 x78)))
(assert (not (= x48 x88)))
(assert (not (= (_ bv8 8) (_ bv5 8))))
(assert (not (= (_ bv8 8) x78)))
(assert (not (= (_ bv8 8) x88)))
(assert (not (= (_ bv5 8) x78)))
(assert (not (= (_ bv5 8) x88)))
(assert (not (= x78 x88)))
(assert (not (= (_ bv7 8) x01)))
(assert (not (= (_ bv7 8) (_ bv2 8))))
(assert (not (= (_ bv7 8) x10)))
(assert (not (= (_ bv7 8) (_ bv1 8))))
(assert (not (= (_ bv7 8) x12)))
(assert (not (= (_ bv7 8) (_ bv5 8))))
(assert (not (= (_ bv7 8) x21)))
(assert (not (= (_ bv7 8) (_ bv8 8))))
(assert (not (= x01 (_ bv2 8))))
(assert (not (= x01 x10)))
(assert (not (= x01 (_ bv1 8))))
(assert (not (= x01 x12)))
(assert (not (= x01 (_ bv5 8))))
(assert (not (= x01 x21)))
(assert (not (= x01 (_ bv8 8))))
(assert (not (= (_ bv2 8) x10)))
(assert (not (= (_ bv2 8) (_ bv1 8))))
(assert (not (= (_ bv2 8) x12)))
(assert (not (= (_ bv2 8) (_ bv5 8))))
(assert (not (= (_ bv2 8) x21)))
(assert (not (= (_ bv2 8) (_ bv8 8))))
(assert (not (= x10 (_ bv1 8))))
(assert (not (= x10 x12)))
(assert (not (= x10 (_ bv5 8))))
(assert (not (= x10 x21)))
(assert (not (= x10 (_ bv8 8))))
(assert (not (= (_ bv1 8) x12)))
(assert (not (= (_ bv1 8) (_ bv5 8))))
(assert (not (= (_ bv1 8) x21)))
(assert (not (= (_ bv1 8) (_ bv8 8))))
(assert (not (= x12 (_ bv5 8))))
(assert (not (= x12 x21)))
(assert (not (= x12 (_ bv8 8))))
(assert (not (= (_ bv5 8) x21)))
(assert (not (= (_ bv5 8) (_ bv8 8))))
(assert (not (= x21 (_ bv8 8))))
(assert (not (= x03 x04)))
(assert (not (= x03 (_ bv5 8))))
(assert (not (= x03 x13)))
(assert (not (= x03 x14)))
(assert (not (= x03 x15)))
(assert (not (= x03 x23)))
(assert (not (= x03 x24)))
(assert (not (= x03 (_ bv2 8))))
(assert (not (= x04 (_ bv5 8))))
(assert (not (= x04 x13)))
(assert (not (= x04 x14)))
(assert (not (= x04 x15)))
(assert (not (= x04 x23)))
(assert (not (= x04 x24)))
(assert (not (= x04 (_ bv2 8))))
(assert (not (= (_ bv5 8) x13)))
(assert (not (= (_ bv5 8) x14)))
(assert (not (= (_ bv5 8) x15)))
(assert (not (= (_ bv5 8) x23)))
(assert (not (= (_ bv5 8) x24)))
(assert (not (= (_ bv5 8) (_ bv2 8))))
(assert (not (= x13 x14)))
(assert (not (= x13 x15)))
(assert (not (= x13 x23)))
(assert (not (= x13 x24)))
(assert (not (= x13 (_ bv2 8))))
(assert (not (= x14 x15)))
(assert (not (= x14 x23)))
(assert (not (= x14 x24)))
(assert (not (= x14 (_ bv2 8))))
(assert (not (= x15 x23)))
(assert (not (= x15 x24)))
(assert (not (= x15 (_ bv2 8))))
(assert (not (= x23 x24)))
(assert (not (= x23 (_ bv2 8))))
(assert (not (= x24 (_ bv2 8))))
(assert (not (= x06 (_ bv8 8))))
(assert (not (= x06 (_ bv9 8))))
(assert (not (= x06 x16)))
(assert (not (= x06 x17)))
(assert (not (= x06 (_ bv3 8))))
(assert (not (= x06 (_ bv4 8))))
(assert (not (= x06 (_ bv6 8))))
(assert (not (= x06 x28)))
(assert (not (= (_ bv8 8) (_ bv9 8))))
(assert (not (= (_ bv8 8) x16)))
(assert (not (= (_ bv8 8) x17)))
(assert (not (= (_ bv8 8) (_ bv3 8))))
(assert (not (= (_ bv8 8) (_ bv4 8))))
(assert (not (= (_ bv8 8) (_ bv6 8))))
(assert (not (= (_ bv8 8) x28)))
(assert (not (= (_ bv9 8) x16)))
(assert (not (= (_ bv9 8) x17)))
(assert (not (= (_ bv9 8) (_ bv3 8))))
(assert (not (= (_ bv9 8) (_ bv4 8))))
(assert (not (= (_ bv9 8) (_ bv6 8))))
(assert (not (= (_ bv9 8) x28)))
(assert (not (= x16 x17)))
(assert (not (= x16 (_ bv3 8))))
(assert (not (= x16 (_ bv4 8))))
(assert (not (= x16 (_ bv6 8))))
(assert (not (= x16 x28)))
(assert (not (= x17 (_ bv3 8))))
(assert (not (= x17 (_ bv4 8))))
(assert (not (= x17 (_ bv6 8))))
(assert (not (= x17 x28)))
(assert (not (= (_ bv3 8) (_ bv4 8))))
(assert (not (= (_ bv3 8) (_ bv6 8))))
(assert (not (= (_ bv3 8) x28)))
(assert (not (= (_ bv4 8) (_ bv6 8))))
(assert (not (= (_ bv4 8) x28)))
(assert (not (= (_ bv6 8) x28)))
(assert (not (= x30 (_ bv6 8))))
(assert (not (= x30 (_ bv4 8))))
(assert (not (= x30 (_ bv1 8))))
(assert (not (= x30 x41)))
(assert (not (= x30 x42)))
(assert (not (= x30 x50)))
(assert (not (= x30 x51)))
(assert (not (= x30 x52)))
(assert (not (= (_ bv6 8) (_ bv4 8))))
(assert (not (= (_ bv6 8) (_ bv1 8))))
(assert (not (= (_ bv6 8) x41)))
(assert (not (= (_ bv6 8) x42)))
(assert (not (= (_ bv6 8) x50)))
(assert (not (= (_ bv6 8) x51)))
(assert (not (= (_ bv6 8) x52)))
(assert (not (= (_ bv4 8) (_ bv1 8))))
(assert (not (= (_ bv4 8) x41)))
(assert (not (= (_ bv4 8) x42)))
(assert (not (= (_ bv4 8) x50)))
(assert (not (= (_ bv4 8) x51)))
(assert (not (= (_ bv4 8) x52)))
(assert (not (= (_ bv1 8) x41)))
(assert (not (= (_ bv1 8) x42)))
(assert (not (= (_ bv1 8) x50)))
(assert (not (= (_ bv1 8) x51)))
(assert (not (= (_ bv1 8) x52)))
(assert (not (= x41 x42)))
(assert (not (= x41 x50)))
(assert (not (= x41 x51)))
(assert (not (= x41 x52)))
(assert (not (= x42 x50)))
(assert (not (= x42 x51)))
(assert (not (= x42 x52)))
(assert (not (= x50 x51)))
(assert (not (= x50 x52)))
(assert (not (= x51 x52)))
(assert (not (= (_ bv7 8) x34)))
(assert (not (= (_ bv7 8) (_ bv9 8))))
(assert (not (= (_ bv7 8) x43)))
(assert (not (= (_ bv7 8) (_ bv8 8))))
(assert (not (= (_ bv7 8) (_ bv6 8))))
(assert (not (= (_ bv7 8) (_ bv3 8))))
(assert (not (= (_ bv7 8) (_ bv4 8))))
(assert (not (= (_ bv7 8) x55)))
(assert (not (= x34 (_ bv9 8))))
(assert (not (= x34 x43)))
(assert (not (= x34 (_ bv8 8))))
(assert (not (= x34 (_ bv6 8))))
(assert (not (= x34 (_ bv3 8))))
(assert (not (= x34 (_ bv4 8))))
(assert (not (= x34 x55)))
(assert (not (= (_ bv9 8) x43)))
(assert (not (= (_ bv9 8) (_ bv8 8))))
(assert (not (= (_ bv9 8) (_ bv6 8))))
(assert (not (= (_ bv9 8) (_ bv3 8))))
(assert (not (= (_ bv9 8) (_ bv4 8))))
(assert (not (= (_ bv9 8) x55)))
(assert (not (= x43 (_ bv8 8))))
(assert (not (= x43 (_ bv6 8))))
(assert (not (= x43 (_ bv3 8))))
(assert (not (= x43 (_ bv4 8))))
(assert (not (= x43 x55)))
(assert (not (= (_ bv8 8) (_ bv6 8))))
(assert (not (= (_ bv8 8) (_ bv3 8))))
(assert (not (= (_ bv8 8) (_ bv4 8))))
(assert (not (= (_ bv8 8) x55)))
(assert (not (= (_ bv6 8) (_ bv3 8))))
(assert (not (= (_ bv6 8) (_ bv4 8))))
(assert (not (= (_ bv6 8) x55)))
(assert (not (= (_ bv3 8) (_ bv4 8))))
(assert (not (= (_ bv3 8) x55)))
(assert (not (= (_ bv4 8) x55)))
(assert (not (= x36 x37)))
(assert (not (= x36 x38)))
(assert (not (= x36 x46)))
(assert (not (= x36 (_ bv5 8))))
(assert (not (= x36 x48)))
(assert (not (= x36 x56)))
(assert (not (= x36 x57)))
(assert (not (= x36 (_ bv8 8))))
(assert (not (= x37 x38)))
(assert (not (= x37 x46)))
(assert (not (= x37 (_ bv5 8))))
(assert (not (= x37 x48)))
(assert (not (= x37 x56)))
(assert (not (= x37 x57)))
(assert (not (= x37 (_ bv8 8))))
(assert (not (= x38 x46)))
(assert (not (= x38 (_ bv5 8))))
(assert (not (= x38 x48)))
(assert (not (= x38 x56)))
(assert (not (= x38 x57)))
(assert (not (= x38 (_ bv8 8))))
(assert (not (= x46 (_ bv5 8))))
(assert (not (= x46 x48)))
(assert (not (= x46 x56)))
(assert (not (= x46 x57)))
(assert (not (= x46 (_ bv8 8))))
(assert (not (= (_ bv5 8) x48)))
(assert (not (= (_ bv5 8) x56)))
(assert (not (= (_ bv5 8) x57)))
(assert (not (= (_ bv5 8) (_ bv8 8))))
(assert (not (= x48 x56)))
(assert (not (= x48 x57)))
(assert (not (= x48 (_ bv8 8))))
(assert (not (= x56 x57)))
(assert (not (= x56 (_ bv8 8))))
(assert (not (= x57 (_ bv8 8))))
(assert (not (= (_ bv9 8) x61)))
(assert (not (= (_ bv9 8) x62)))
(assert (not (= (_ bv9 8) x70)))
(assert (not (= (_ bv9 8) (_ bv2 8))))
(assert (not (= (_ bv9 8) x72)))
(assert (not (= (_ bv9 8) (_ bv3 8))))
(assert (not (= (_ bv9 8) x81)))
(assert (not (= (_ bv9 8) (_ bv6 8))))
(assert (not (= x61 x62)))
(assert (not (= x61 x70)))
(assert (not (= x61 (_ bv2 8))))
(assert (not (= x61 x72)))
(assert (not (= x61 (_ bv3 8))))
(assert (not (= x61 x81)))
(assert (not (= x61 (_ bv6 8))))
(assert (not (= x62 x70)))
(assert (not (= x62 (_ bv2 8))))
(assert (not (= x62 x72)))
(assert (not (= x62 (_ bv3 8))))
(assert (not (= x62 x81)))
(assert (not (= x62 (_ bv6 8))))
(assert (not (= x70 (_ bv2 8))))
(assert (not (= x70 x72)))
(assert (not (= x70 (_ bv3 8))))
(assert (not (= x70 x81)))
(assert (not (= x70 (_ bv6 8))))
(assert (not (= (_ bv2 8) x72)))
(assert (not (= (_ bv2 8) (_ bv3 8))))
(assert (not (= (_ bv2 8) x81)))
(assert (not (= (_ bv2 8) (_ bv6 8))))
(assert (not (= x72 (_ bv3 8))))
(assert (not (= x72 x81)))
(assert (not (= x72 (_ bv6 8))))
(assert (not (= (_ bv3 8) x81)))
(assert (not (= (_ bv3 8) (_ bv6 8))))
(assert (not (= x81 (_ bv6 8))))
(assert (not (= (_ bv1 8) x64)))
(assert (not (= (_ bv1 8) x65)))
(assert (not (= (_ bv1 8) x73)))
(assert (not (= (_ bv1 8) x74)))
(assert (not (= (_ bv1 8) x75)))
(assert (not (= (_ bv1 8) (_ bv4 8))))
(assert (not (= (_ bv1 8) (_ bv2 8))))
(assert (not (= (_ bv1 8) (_ bv7 8))))
(assert (not (= x64 x65)))
(assert (not (= x64 x73)))
(assert (not (= x64 x74)))
(assert (not (= x64 x75)))
(assert (not (= x64 (_ bv4 8))))
(assert (not (= x64 (_ bv2 8))))
(assert (not (= x64 (_ bv7 8))))
(assert (not (= x65 x73)))
(assert (not (= x65 x74)))
(assert (not (= x65 x75)))
(assert (not (= x65 (_ bv4 8))))
(assert (not (= x65 (_ bv2 8))))
(assert (not (= x65 (_ bv7 8))))
(assert (not (= x73 x74)))
(assert (not (= x73 x75)))
(assert (not (= x73 (_ bv4 8))))
(assert (not (= x73 (_ bv2 8))))
(assert (not (= x73 (_ bv7 8))))
(assert (not (= x74 x75)))
(assert (not (= x74 (_ bv4 8))))
(assert (not (= x74 (_ bv2 8))))
(assert (not (= x74 (_ bv7 8))))
(assert (not (= x75 (_ bv4 8))))
(assert (not (= x75 (_ bv2 8))))
(assert (not (= x75 (_ bv7 8))))
(assert (not (= (_ bv4 8) (_ bv2 8))))
(assert (not (= (_ bv4 8) (_ bv7 8))))
(assert (not (= (_ bv2 8) (_ bv7 8))))
(assert (not (= x66 x67)))
(assert (not (= x66 (_ bv5 8))))
(assert (not (= x66 (_ bv7 8))))
(assert (not (= x66 x77)))
(assert (not (= x66 x78)))
(assert (not (= x66 x86)))
(assert (not (= x66 (_ bv9 8))))
(assert (not (= x66 x88)))
(assert (not (= x67 (_ bv5 8))))
(assert (not (= x67 (_ bv7 8))))
(assert (not (= x67 x77)))
(assert (not (= x67 x78)))
(assert (not (= x67 x86)))
(assert (not (= x67 (_ bv9 8))))
(assert (not (= x67 x88)))
(assert (not (= (_ bv5 8) (_ bv7 8))))
(assert (not (= (_ bv5 8) x77)))
(assert (not (= (_ bv5 8) x78)))
(assert (not (= (_ bv5 8) x86)))
(assert (not (= (_ bv5 8) (_ bv9 8))))
(assert (not (= (_ bv5 8) x88)))
(assert (not (= (_ bv7 8) x77)))
(assert (not (= (_ bv7 8) x78)))
(assert (not (= (_ bv7 8) x86)))
(assert (not (= (_ bv7 8) (_ bv9 8))))
(assert (not (= (_ bv7 8) x88)))
(assert (not (= x77 x78)))
(assert (not (= x77 x86)))
(assert (not (= x77 (_ bv9 8))))
(assert (not (= x77 x88)))
(assert (not (= x78 x86)))
(assert (not (= x78 (_ bv9 8))))
(assert (not (= x78 x88)))
(assert (not (= x86 (_ bv9 8))))
(assert (not (= x86 x88)))
(assert (not (= (_ bv9 8) x88)))
(check-sat)
(exit)
